c 
p cnf 114 188
9 -8 21 0
-21 -13 22 0
-22 7 -1 0
-10 23 24 0
-10 23 -24 0
-10 -23 24 0
-10 -23 -24 0
16 18 25 0
16 18 -25 0
13 2 26 0
-26 -4 5 0
18 -10 27 0
18 -10 -27 0
7 -9 28 0
7 -9 -28 0
18 -15 12 0
-3 -14 29 0
-3 -14 -29 0
-19 5 30 0
-19 5 -30 0
2 17 31 0
2 17 -31 0
2 11 -15 0
-14 32 33 0
-14 32 -33 0
-14 -32 33 0
-14 -32 -33 0
-20 -15 34 0
-34 2 35 0
-35 -6 -3 0
-3 16 36 0
-3 16 -36 0
-2 -3 37 0
-37 -1 -7 0
-2 -3 38 0
-2 -3 -38 0
13 -10 39 0
13 -10 -39 0
7 40 41 0
7 40 -41 0
7 -40 41 0
7 -40 -41 0
13 -6 11 0
13 9 42 0
-42 -4 -7 0
9 1 43 0
-43 18 -15 0
8 -4 44 0
8 -4 -44 0
19 45 46 0
19 45 -46 0
19 -45 46 0
19 -45 -46 0
-4 17 47 0
-47 14 -16 0
-3 20 48 0
-3 20 -48 0
-7 2 -16 0
-16 -7 49 0
-16 -7 -49 0
-14 -15 4 0
9 -10 50 0
9 -10 -50 0
-1 16 51 0
-51 -7 -18 0
-10 -4 52 0
-10 -4 -52 0
8 -14 -12 0
-9 -3 53 0
-53 -16 -12 0
11 1 54 0
11 1 -54 0
14 -11 55 0
-55 -19 56 0
-56 15 8 0
10 3 57 0
10 3 -57 0
20 3 58 0
-58 -6 59 0
-59 -16 10 0
7 -18 60 0
-60 -16 61 0
-61 -6 17 0
-13 8 62 0
-13 8 -62 0
-11 63 64 0
-11 63 -64 0
-11 -63 64 0
-11 -63 -64 0
-7 18 65 0
-65 -2 -9 0
-6 -5 66 0
-66 7 16 0
-2 10 67 0
-67 14 68 0
-68 19 3 0
-7 69 70 0
-7 69 -70 0
-7 -69 70 0
-7 -69 -70 0
15 71 72 0
15 71 -72 0
15 -71 72 0
15 -71 -72 0
16 4 73 0
16 4 -73 0
-2 20 -14 0
17 18 74 0
-74 -6 75 0
-75 19 -7 0
-18 4 76 0
-76 -17 20 0
11 -14 77 0
-77 8 -16 0
2 -13 78 0
2 -13 -78 0
-18 17 79 0
-79 -3 80 0
-80 -14 8 0
-4 81 82 0
-4 81 -82 0
-4 -81 82 0
-4 -81 -82 0
-13 -9 -12 0
3 -19 83 0
3 -19 -83 0
-14 -17 84 0
-84 -1 -12 0
1 4 85 0
1 4 -85 0
14 -17 86 0
14 -17 -86 0
-13 87 88 0
-13 87 -88 0
-13 -87 88 0
-13 -87 -88 0
-7 -1 12 0
8 -18 89 0
-89 10 15 0
-11 -7 -19 0
-4 -1 90 0
-90 -20 -6 0
-9 -14 91 0
-91 2 92 0
-92 -6 -8 0
2 93 94 0
2 93 -94 0
2 -93 94 0
2 -93 -94 0
-19 -17 95 0
-95 -20 96 0
-96 -16 -7 0
-9 -3 -17 0
-20 -9 97 0
-20 -9 -97 0
3 -9 98 0
3 -9 -98 0
-14 99 100 0
-14 99 -100 0
-14 -99 100 0
-14 -99 -100 0
2 -17 101 0
-101 20 102 0
-102 -18 -13 0
-12 20 103 0
-12 20 -103 0
3 6 104 0
-104 -15 -8 0
-12 4 105 0
-12 4 -105 0
-8 106 107 0
-8 106 -107 0
-8 -106 107 0
-8 -106 -107 0
-20 108 109 0
-20 108 -109 0
-20 -108 109 0
-20 -108 -109 0
3 110 111 0
3 110 -111 0
3 -110 111 0
3 -110 -111 0
-9 -18 7 0
20 19 112 0
-112 1 -12 0
2 14 113 0
-113 3 114 0
-114 -11 -15 0
